(declare-fun bvlambda_33_ ()Bool          )
(declare-fun a160 () (Array (_ BitVec 1) (_ BitVec 10)))
(assert
(let (($e36 (_ bv0    10)))
(let (($e297                  bvlambda_33_ ))
(let (($e298 (store a160 true               $e36 )))
(
                 extract(select $e298(not $e297))
                                                                                                                                                                                                                                                                                                                                                                                                                                                                                                                                                                                                                                                                                                                                                                                                                                                                                                                                                                                                                                                                                                                                                                                                                                                                                                                                                                                                                                                                                                                                                                                                                                                                                                                                                                                                                                                                                                                                                                                                                                                                                                                                                            ) ))                                                                                                                                                                                                       )                                   )
